NAME OBJROW
ROWS
 N  OBJ
 G  R0      
 G  R1      
 G  R2      
 G  R3      
 G  R4      
 G  R5      
 G  R6      
 G  R7      
 G  R8      
 G  R9      
 G  R10     
 G  R11     
 G  R12     
 G  R13     
 G  R14     
 G  R15     
 G  R16     
 G  R17     
 G  R18     
 G  R19     
 G  R20     
 G  R21     
 G  R22     
 G  R23     
 G  R24     
 G  R25     
 G  R26     
 G  R27     
 G  R28     
 G  R29     
 G  R30     
 G  R31     
 G  R32     
 G  R33     
 G  R34     
 G  R35     
 G  R36     
 G  R37     
 G  R38     
 G  R39     
 G  R40     
 G  R41     
 G  R42     
 G  R43     
 G  R44     
 G  R45     
 G  R46     
 G  R47     
 G  R48     
 G  R49     
 G  R50     
 G  R51     
 G  R52     
 G  R53     
 G  R54     
 G  R55     
 G  R56     
 G  R57     
 G  R58     
 G  R59     
 G  R60     
 G  R61     
 G  R62     
 G  R63     
 G  R64     
 G  R65     
 G  R66     
 G  R67     
 G  R68     
 G  R69     
 G  R70     
 G  R71     
 G  R72     
 G  R73     
 G  R74     
 G  R75     
 G  R76     
 G  R77     
 G  R78     
 G  R79     
 G  R80     
 G  R81     
 G  R82     
 G  R83     
 G  R84     
 G  R85     
 G  R86     
 G  R87     
 G  R88     
 G  R89     
 G  R90     
 G  R91     
 G  R92     
 G  R93     
 G  R94     
 G  R95     
 G  R96     
 G  R97     
 G  R98     
 G  R99     
 G  R100    
 G  R101    
 G  R102    
 G  R103    
 G  R104    
 G  R105    
 G  R106    
 G  R107    
 G  R108    
 G  R109    
 G  R110    
 G  R111    
 G  R112    
 G  R113    
 G  R114    
 G  R115    
 G  R116    
 G  R117    
 G  R118    
 G  R119    
 G  R120    
 G  R121    
 G  R122    
 G  R123    
 G  R124    
 G  R125    
 G  R126    
 G  R127    
COLUMNS
    X0        OBJ       1
    X0        R0        1
    X0        R1        1
    X0        R2        1
    X0        R4        1
    X0        R8        1
    X0        R16       1
    X0        R32       1
    X0        R64       1
    X1        OBJ       1
    X1        R0        1
    X1        R1        1
    X1        R3        1
    X1        R5        1
    X1        R9        1
    X1        R17       1
    X1        R33       1
    X1        R65       1
    X2        OBJ       1
    X2        R0        1
    X2        R2        1
    X2        R3        1
    X2        R6        1
    X2        R10       1
    X2        R18       1
    X2        R34       1
    X2        R66       1
    X3        OBJ       1
    X3        R1        1
    X3        R2        1
    X3        R3        1
    X3        R7        1
    X3        R11       1
    X3        R19       1
    X3        R35       1
    X3        R67       1
    X4        OBJ       1
    X4        R0        1
    X4        R4        1
    X4        R5        1
    X4        R6        1
    X4        R12       1
    X4        R20       1
    X4        R36       1
    X4        R68       1
    X5        OBJ       1
    X5        R1        1
    X5        R4        1
    X5        R5        1
    X5        R7        1
    X5        R13       1
    X5        R21       1
    X5        R37       1
    X5        R69       1
    X6        OBJ       1
    X6        R2        1
    X6        R4        1
    X6        R6        1
    X6        R7        1
    X6        R14       1
    X6        R22       1
    X6        R38       1
    X6        R70       1
    X7        OBJ       1
    X7        R3        1
    X7        R5        1
    X7        R6        1
    X7        R7        1
    X7        R15       1
    X7        R23       1
    X7        R39       1
    X7        R71       1
    X8        OBJ       1
    X8        R0        1
    X8        R8        1
    X8        R9        1
    X8        R10       1
    X8        R12       1
    X8        R24       1
    X8        R40       1
    X8        R72       1
    X9        OBJ       1
    X9        R1        1
    X9        R8        1
    X9        R9        1
    X9        R11       1
    X9        R13       1
    X9        R25       1
    X9        R41       1
    X9        R73       1
    X10       OBJ       1
    X10       R2        1
    X10       R8        1
    X10       R10       1
    X10       R11       1
    X10       R14       1
    X10       R26       1
    X10       R42       1
    X10       R74       1
    X11       OBJ       1
    X11       R3        1
    X11       R9        1
    X11       R10       1
    X11       R11       1
    X11       R15       1
    X11       R27       1
    X11       R43       1
    X11       R75       1
    X12       OBJ       1
    X12       R4        1
    X12       R8        1
    X12       R12       1
    X12       R13       1
    X12       R14       1
    X12       R28       1
    X12       R44       1
    X12       R76       1
    X13       OBJ       1
    X13       R5        1
    X13       R9        1
    X13       R12       1
    X13       R13       1
    X13       R15       1
    X13       R29       1
    X13       R45       1
    X13       R77       1
    X14       OBJ       1
    X14       R6        1
    X14       R10       1
    X14       R12       1
    X14       R14       1
    X14       R15       1
    X14       R30       1
    X14       R46       1
    X14       R78       1
    X15       OBJ       1
    X15       R7        1
    X15       R11       1
    X15       R13       1
    X15       R14       1
    X15       R15       1
    X15       R31       1
    X15       R47       1
    X15       R79       1
    X16       OBJ       1
    X16       R0        1
    X16       R16       1
    X16       R17       1
    X16       R18       1
    X16       R20       1
    X16       R24       1
    X16       R48       1
    X16       R80       1
    X17       OBJ       1
    X17       R1        1
    X17       R16       1
    X17       R17       1
    X17       R19       1
    X17       R21       1
    X17       R25       1
    X17       R49       1
    X17       R81       1
    X18       OBJ       1
    X18       R2        1
    X18       R16       1
    X18       R18       1
    X18       R19       1
    X18       R22       1
    X18       R26       1
    X18       R50       1
    X18       R82       1
    X19       OBJ       1
    X19       R3        1
    X19       R17       1
    X19       R18       1
    X19       R19       1
    X19       R23       1
    X19       R27       1
    X19       R51       1
    X19       R83       1
    X20       OBJ       1
    X20       R4        1
    X20       R16       1
    X20       R20       1
    X20       R21       1
    X20       R22       1
    X20       R28       1
    X20       R52       1
    X20       R84       1
    X21       OBJ       1
    X21       R5        1
    X21       R17       1
    X21       R20       1
    X21       R21       1
    X21       R23       1
    X21       R29       1
    X21       R53       1
    X21       R85       1
    X22       OBJ       1
    X22       R6        1
    X22       R18       1
    X22       R20       1
    X22       R22       1
    X22       R23       1
    X22       R30       1
    X22       R54       1
    X22       R86       1
    X23       OBJ       1
    X23       R7        1
    X23       R19       1
    X23       R21       1
    X23       R22       1
    X23       R23       1
    X23       R31       1
    X23       R55       1
    X23       R87       1
    X24       OBJ       1
    X24       R8        1
    X24       R16       1
    X24       R24       1
    X24       R25       1
    X24       R26       1
    X24       R28       1
    X24       R56       1
    X24       R88       1
    X25       OBJ       1
    X25       R9        1
    X25       R17       1
    X25       R24       1
    X25       R25       1
    X25       R27       1
    X25       R29       1
    X25       R57       1
    X25       R89       1
    X26       OBJ       1
    X26       R10       1
    X26       R18       1
    X26       R24       1
    X26       R26       1
    X26       R27       1
    X26       R30       1
    X26       R58       1
    X26       R90       1
    X27       OBJ       1
    X27       R11       1
    X27       R19       1
    X27       R25       1
    X27       R26       1
    X27       R27       1
    X27       R31       1
    X27       R59       1
    X27       R91       1
    X28       OBJ       1
    X28       R12       1
    X28       R20       1
    X28       R24       1
    X28       R28       1
    X28       R29       1
    X28       R30       1
    X28       R60       1
    X28       R92       1
    X29       OBJ       1
    X29       R13       1
    X29       R21       1
    X29       R25       1
    X29       R28       1
    X29       R29       1
    X29       R31       1
    X29       R61       1
    X29       R93       1
    X30       OBJ       1
    X30       R14       1
    X30       R22       1
    X30       R26       1
    X30       R28       1
    X30       R30       1
    X30       R31       1
    X30       R62       1
    X30       R94       1
    X31       OBJ       1
    X31       R15       1
    X31       R23       1
    X31       R27       1
    X31       R29       1
    X31       R30       1
    X31       R31       1
    X31       R63       1
    X31       R95       1
    X32       OBJ       1
    X32       R0        1
    X32       R32       1
    X32       R33       1
    X32       R34       1
    X32       R36       1
    X32       R40       1
    X32       R48       1
    X32       R96       1
    X33       OBJ       1
    X33       R1        1
    X33       R32       1
    X33       R33       1
    X33       R35       1
    X33       R37       1
    X33       R41       1
    X33       R49       1
    X33       R97       1
    X34       OBJ       1
    X34       R2        1
    X34       R32       1
    X34       R34       1
    X34       R35       1
    X34       R38       1
    X34       R42       1
    X34       R50       1
    X34       R98       1
    X35       OBJ       1
    X35       R3        1
    X35       R33       1
    X35       R34       1
    X35       R35       1
    X35       R39       1
    X35       R43       1
    X35       R51       1
    X35       R99       1
    X36       OBJ       1
    X36       R4        1
    X36       R32       1
    X36       R36       1
    X36       R37       1
    X36       R38       1
    X36       R44       1
    X36       R52       1
    X36       R100      1
    X37       OBJ       1
    X37       R5        1
    X37       R33       1
    X37       R36       1
    X37       R37       1
    X37       R39       1
    X37       R45       1
    X37       R53       1
    X37       R101      1
    X38       OBJ       1
    X38       R6        1
    X38       R34       1
    X38       R36       1
    X38       R38       1
    X38       R39       1
    X38       R46       1
    X38       R54       1
    X38       R102      1
    X39       OBJ       1
    X39       R7        1
    X39       R35       1
    X39       R37       1
    X39       R38       1
    X39       R39       1
    X39       R47       1
    X39       R55       1
    X39       R103      1
    X40       OBJ       1
    X40       R8        1
    X40       R32       1
    X40       R40       1
    X40       R41       1
    X40       R42       1
    X40       R44       1
    X40       R56       1
    X40       R104      1
    X41       OBJ       1
    X41       R9        1
    X41       R33       1
    X41       R40       1
    X41       R41       1
    X41       R43       1
    X41       R45       1
    X41       R57       1
    X41       R105      1
    X42       OBJ       1
    X42       R10       1
    X42       R34       1
    X42       R40       1
    X42       R42       1
    X42       R43       1
    X42       R46       1
    X42       R58       1
    X42       R106      1
    X43       OBJ       1
    X43       R11       1
    X43       R35       1
    X43       R41       1
    X43       R42       1
    X43       R43       1
    X43       R47       1
    X43       R59       1
    X43       R107      1
    X44       OBJ       1
    X44       R12       1
    X44       R36       1
    X44       R40       1
    X44       R44       1
    X44       R45       1
    X44       R46       1
    X44       R60       1
    X44       R108      1
    X45       OBJ       1
    X45       R13       1
    X45       R37       1
    X45       R41       1
    X45       R44       1
    X45       R45       1
    X45       R47       1
    X45       R61       1
    X45       R109      1
    X46       OBJ       1
    X46       R14       1
    X46       R38       1
    X46       R42       1
    X46       R44       1
    X46       R46       1
    X46       R47       1
    X46       R62       1
    X46       R110      1
    X47       OBJ       1
    X47       R15       1
    X47       R39       1
    X47       R43       1
    X47       R45       1
    X47       R46       1
    X47       R47       1
    X47       R63       1
    X47       R111      1
    X48       OBJ       1
    X48       R16       1
    X48       R32       1
    X48       R48       1
    X48       R49       1
    X48       R50       1
    X48       R52       1
    X48       R56       1
    X48       R112      1
    X49       OBJ       1
    X49       R17       1
    X49       R33       1
    X49       R48       1
    X49       R49       1
    X49       R51       1
    X49       R53       1
    X49       R57       1
    X49       R113      1
    X50       OBJ       1
    X50       R18       1
    X50       R34       1
    X50       R48       1
    X50       R50       1
    X50       R51       1
    X50       R54       1
    X50       R58       1
    X50       R114      1
    X51       OBJ       1
    X51       R19       1
    X51       R35       1
    X51       R49       1
    X51       R50       1
    X51       R51       1
    X51       R55       1
    X51       R59       1
    X51       R115      1
    X52       OBJ       1
    X52       R20       1
    X52       R36       1
    X52       R48       1
    X52       R52       1
    X52       R53       1
    X52       R54       1
    X52       R60       1
    X52       R116      1
    X53       OBJ       1
    X53       R21       1
    X53       R37       1
    X53       R49       1
    X53       R52       1
    X53       R53       1
    X53       R55       1
    X53       R61       1
    X53       R117      1
    X54       OBJ       1
    X54       R22       1
    X54       R38       1
    X54       R50       1
    X54       R52       1
    X54       R54       1
    X54       R55       1
    X54       R62       1
    X54       R118      1
    X55       OBJ       1
    X55       R23       1
    X55       R39       1
    X55       R51       1
    X55       R53       1
    X55       R54       1
    X55       R55       1
    X55       R63       1
    X55       R119      1
    X56       OBJ       1
    X56       R24       1
    X56       R40       1
    X56       R48       1
    X56       R56       1
    X56       R57       1
    X56       R58       1
    X56       R60       1
    X56       R120      1
    X57       OBJ       1
    X57       R25       1
    X57       R41       1
    X57       R49       1
    X57       R56       1
    X57       R57       1
    X57       R59       1
    X57       R61       1
    X57       R121      1
    X58       OBJ       1
    X58       R26       1
    X58       R42       1
    X58       R50       1
    X58       R56       1
    X58       R58       1
    X58       R59       1
    X58       R62       1
    X58       R122      1
    X59       OBJ       1
    X59       R27       1
    X59       R43       1
    X59       R51       1
    X59       R57       1
    X59       R58       1
    X59       R59       1
    X59       R63       1
    X59       R123      1
    X60       OBJ       1
    X60       R28       1
    X60       R44       1
    X60       R52       1
    X60       R56       1
    X60       R60       1
    X60       R61       1
    X60       R62       1
    X60       R124      1
    X61       OBJ       1
    X61       R29       1
    X61       R45       1
    X61       R53       1
    X61       R57       1
    X61       R60       1
    X61       R61       1
    X61       R63       1
    X61       R125      1
    X62       OBJ       1
    X62       R30       1
    X62       R46       1
    X62       R54       1
    X62       R58       1
    X62       R60       1
    X62       R62       1
    X62       R63       1
    X62       R126      1
    X63       OBJ       1
    X63       R31       1
    X63       R47       1
    X63       R55       1
    X63       R59       1
    X63       R61       1
    X63       R62       1
    X63       R63       1
    X63       R127      1
    X64       OBJ       1
    X64       R0        1
    X64       R64       1
    X64       R65       1
    X64       R66       1
    X64       R68       1
    X64       R72       1
    X64       R80       1
    X64       R96       1
    X65       OBJ       1
    X65       R1        1
    X65       R64       1
    X65       R65       1
    X65       R67       1
    X65       R69       1
    X65       R73       1
    X65       R81       1
    X65       R97       1
    X66       OBJ       1
    X66       R2        1
    X66       R64       1
    X66       R66       1
    X66       R67       1
    X66       R70       1
    X66       R74       1
    X66       R82       1
    X66       R98       1
    X67       OBJ       1
    X67       R3        1
    X67       R65       1
    X67       R66       1
    X67       R67       1
    X67       R71       1
    X67       R75       1
    X67       R83       1
    X67       R99       1
    X68       OBJ       1
    X68       R4        1
    X68       R64       1
    X68       R68       1
    X68       R69       1
    X68       R70       1
    X68       R76       1
    X68       R84       1
    X68       R100      1
    X69       OBJ       1
    X69       R5        1
    X69       R65       1
    X69       R68       1
    X69       R69       1
    X69       R71       1
    X69       R77       1
    X69       R85       1
    X69       R101      1
    X70       OBJ       1
    X70       R6        1
    X70       R66       1
    X70       R68       1
    X70       R70       1
    X70       R71       1
    X70       R78       1
    X70       R86       1
    X70       R102      1
    X71       OBJ       1
    X71       R7        1
    X71       R67       1
    X71       R69       1
    X71       R70       1
    X71       R71       1
    X71       R79       1
    X71       R87       1
    X71       R103      1
    X72       OBJ       1
    X72       R8        1
    X72       R64       1
    X72       R72       1
    X72       R73       1
    X72       R74       1
    X72       R76       1
    X72       R88       1
    X72       R104      1
    X73       OBJ       1
    X73       R9        1
    X73       R65       1
    X73       R72       1
    X73       R73       1
    X73       R75       1
    X73       R77       1
    X73       R89       1
    X73       R105      1
    X74       OBJ       1
    X74       R10       1
    X74       R66       1
    X74       R72       1
    X74       R74       1
    X74       R75       1
    X74       R78       1
    X74       R90       1
    X74       R106      1
    X75       OBJ       1
    X75       R11       1
    X75       R67       1
    X75       R73       1
    X75       R74       1
    X75       R75       1
    X75       R79       1
    X75       R91       1
    X75       R107      1
    X76       OBJ       1
    X76       R12       1
    X76       R68       1
    X76       R72       1
    X76       R76       1
    X76       R77       1
    X76       R78       1
    X76       R92       1
    X76       R108      1
    X77       OBJ       1
    X77       R13       1
    X77       R69       1
    X77       R73       1
    X77       R76       1
    X77       R77       1
    X77       R79       1
    X77       R93       1
    X77       R109      1
    X78       OBJ       1
    X78       R14       1
    X78       R70       1
    X78       R74       1
    X78       R76       1
    X78       R78       1
    X78       R79       1
    X78       R94       1
    X78       R110      1
    X79       OBJ       1
    X79       R15       1
    X79       R71       1
    X79       R75       1
    X79       R77       1
    X79       R78       1
    X79       R79       1
    X79       R95       1
    X79       R111      1
    X80       OBJ       1
    X80       R16       1
    X80       R64       1
    X80       R80       1
    X80       R81       1
    X80       R82       1
    X80       R84       1
    X80       R88       1
    X80       R112      1
    X81       OBJ       1
    X81       R17       1
    X81       R65       1
    X81       R80       1
    X81       R81       1
    X81       R83       1
    X81       R85       1
    X81       R89       1
    X81       R113      1
    X82       OBJ       1
    X82       R18       1
    X82       R66       1
    X82       R80       1
    X82       R82       1
    X82       R83       1
    X82       R86       1
    X82       R90       1
    X82       R114      1
    X83       OBJ       1
    X83       R19       1
    X83       R67       1
    X83       R81       1
    X83       R82       1
    X83       R83       1
    X83       R87       1
    X83       R91       1
    X83       R115      1
    X84       OBJ       1
    X84       R20       1
    X84       R68       1
    X84       R80       1
    X84       R84       1
    X84       R85       1
    X84       R86       1
    X84       R92       1
    X84       R116      1
    X85       OBJ       1
    X85       R21       1
    X85       R69       1
    X85       R81       1
    X85       R84       1
    X85       R85       1
    X85       R87       1
    X85       R93       1
    X85       R117      1
    X86       OBJ       1
    X86       R22       1
    X86       R70       1
    X86       R82       1
    X86       R84       1
    X86       R86       1
    X86       R87       1
    X86       R94       1
    X86       R118      1
    X87       OBJ       1
    X87       R23       1
    X87       R71       1
    X87       R83       1
    X87       R85       1
    X87       R86       1
    X87       R87       1
    X87       R95       1
    X87       R119      1
    X88       OBJ       1
    X88       R24       1
    X88       R72       1
    X88       R80       1
    X88       R88       1
    X88       R89       1
    X88       R90       1
    X88       R92       1
    X88       R120      1
    X89       OBJ       1
    X89       R25       1
    X89       R73       1
    X89       R81       1
    X89       R88       1
    X89       R89       1
    X89       R91       1
    X89       R93       1
    X89       R121      1
    X90       OBJ       1
    X90       R26       1
    X90       R74       1
    X90       R82       1
    X90       R88       1
    X90       R90       1
    X90       R91       1
    X90       R94       1
    X90       R122      1
    X91       OBJ       1
    X91       R27       1
    X91       R75       1
    X91       R83       1
    X91       R89       1
    X91       R90       1
    X91       R91       1
    X91       R95       1
    X91       R123      1
    X92       OBJ       1
    X92       R28       1
    X92       R76       1
    X92       R84       1
    X92       R88       1
    X92       R92       1
    X92       R93       1
    X92       R94       1
    X92       R124      1
    X93       OBJ       1
    X93       R29       1
    X93       R77       1
    X93       R85       1
    X93       R89       1
    X93       R92       1
    X93       R93       1
    X93       R95       1
    X93       R125      1
    X94       OBJ       1
    X94       R30       1
    X94       R78       1
    X94       R86       1
    X94       R90       1
    X94       R92       1
    X94       R94       1
    X94       R95       1
    X94       R126      1
    X95       OBJ       1
    X95       R31       1
    X95       R79       1
    X95       R87       1
    X95       R91       1
    X95       R93       1
    X95       R94       1
    X95       R95       1
    X95       R127      1
    X96       OBJ       1
    X96       R32       1
    X96       R64       1
    X96       R96       1
    X96       R97       1
    X96       R98       1
    X96       R100      1
    X96       R104      1
    X96       R112      1
    X97       OBJ       1
    X97       R33       1
    X97       R65       1
    X97       R96       1
    X97       R97       1
    X97       R99       1
    X97       R101      1
    X97       R105      1
    X97       R113      1
    X98       OBJ       1
    X98       R34       1
    X98       R66       1
    X98       R96       1
    X98       R98       1
    X98       R99       1
    X98       R102      1
    X98       R106      1
    X98       R114      1
    X99       OBJ       1
    X99       R35       1
    X99       R67       1
    X99       R97       1
    X99       R98       1
    X99       R99       1
    X99       R103      1
    X99       R107      1
    X99       R115      1
    X100      OBJ       1
    X100      R36       1
    X100      R68       1
    X100      R96       1
    X100      R100      1
    X100      R101      1
    X100      R102      1
    X100      R108      1
    X100      R116      1
    X101      OBJ       1
    X101      R37       1
    X101      R69       1
    X101      R97       1
    X101      R100      1
    X101      R101      1
    X101      R103      1
    X101      R109      1
    X101      R117      1
    X102      OBJ       1
    X102      R38       1
    X102      R70       1
    X102      R98       1
    X102      R100      1
    X102      R102      1
    X102      R103      1
    X102      R110      1
    X102      R118      1
    X103      OBJ       1
    X103      R39       1
    X103      R71       1
    X103      R99       1
    X103      R101      1
    X103      R102      1
    X103      R103      1
    X103      R111      1
    X103      R119      1
    X104      OBJ       1
    X104      R40       1
    X104      R72       1
    X104      R96       1
    X104      R104      1
    X104      R105      1
    X104      R106      1
    X104      R108      1
    X104      R120      1
    X105      OBJ       1
    X105      R41       1
    X105      R73       1
    X105      R97       1
    X105      R104      1
    X105      R105      1
    X105      R107      1
    X105      R109      1
    X105      R121      1
    X106      OBJ       1
    X106      R42       1
    X106      R74       1
    X106      R98       1
    X106      R104      1
    X106      R106      1
    X106      R107      1
    X106      R110      1
    X106      R122      1
    X107      OBJ       1
    X107      R43       1
    X107      R75       1
    X107      R99       1
    X107      R105      1
    X107      R106      1
    X107      R107      1
    X107      R111      1
    X107      R123      1
    X108      OBJ       1
    X108      R44       1
    X108      R76       1
    X108      R100      1
    X108      R104      1
    X108      R108      1
    X108      R109      1
    X108      R110      1
    X108      R124      1
    X109      OBJ       1
    X109      R45       1
    X109      R77       1
    X109      R101      1
    X109      R105      1
    X109      R108      1
    X109      R109      1
    X109      R111      1
    X109      R125      1
    X110      OBJ       1
    X110      R46       1
    X110      R78       1
    X110      R102      1
    X110      R106      1
    X110      R108      1
    X110      R110      1
    X110      R111      1
    X110      R126      1
    X111      OBJ       1
    X111      R47       1
    X111      R79       1
    X111      R103      1
    X111      R107      1
    X111      R109      1
    X111      R110      1
    X111      R111      1
    X111      R127      1
    X112      OBJ       1
    X112      R48       1
    X112      R80       1
    X112      R96       1
    X112      R112      1
    X112      R113      1
    X112      R114      1
    X112      R116      1
    X112      R120      1
    X113      OBJ       1
    X113      R49       1
    X113      R81       1
    X113      R97       1
    X113      R112      1
    X113      R113      1
    X113      R115      1
    X113      R117      1
    X113      R121      1
    X114      OBJ       1
    X114      R50       1
    X114      R82       1
    X114      R98       1
    X114      R112      1
    X114      R114      1
    X114      R115      1
    X114      R118      1
    X114      R122      1
    X115      OBJ       1
    X115      R51       1
    X115      R83       1
    X115      R99       1
    X115      R113      1
    X115      R114      1
    X115      R115      1
    X115      R119      1
    X115      R123      1
    X116      OBJ       1
    X116      R52       1
    X116      R84       1
    X116      R100      1
    X116      R112      1
    X116      R116      1
    X116      R117      1
    X116      R118      1
    X116      R124      1
    X117      OBJ       1
    X117      R53       1
    X117      R85       1
    X117      R101      1
    X117      R113      1
    X117      R116      1
    X117      R117      1
    X117      R119      1
    X117      R125      1
    X118      OBJ       1
    X118      R54       1
    X118      R86       1
    X118      R102      1
    X118      R114      1
    X118      R116      1
    X118      R118      1
    X118      R119      1
    X118      R126      1
    X119      OBJ       1
    X119      R55       1
    X119      R87       1
    X119      R103      1
    X119      R115      1
    X119      R117      1
    X119      R118      1
    X119      R119      1
    X119      R127      1
    X120      OBJ       1
    X120      R56       1
    X120      R88       1
    X120      R104      1
    X120      R112      1
    X120      R120      1
    X120      R121      1
    X120      R122      1
    X120      R124      1
    X121      OBJ       1
    X121      R57       1
    X121      R89       1
    X121      R105      1
    X121      R113      1
    X121      R120      1
    X121      R121      1
    X121      R123      1
    X121      R125      1
    X122      OBJ       1
    X122      R58       1
    X122      R90       1
    X122      R106      1
    X122      R114      1
    X122      R120      1
    X122      R122      1
    X122      R123      1
    X122      R126      1
    X123      OBJ       1
    X123      R59       1
    X123      R91       1
    X123      R107      1
    X123      R115      1
    X123      R121      1
    X123      R122      1
    X123      R123      1
    X123      R127      1
    X124      OBJ       1
    X124      R60       1
    X124      R92       1
    X124      R108      1
    X124      R116      1
    X124      R120      1
    X124      R124      1
    X124      R125      1
    X124      R126      1
    X125      OBJ       1
    X125      R61       1
    X125      R93       1
    X125      R109      1
    X125      R117      1
    X125      R121      1
    X125      R124      1
    X125      R125      1
    X125      R127      1
    X126      OBJ       1
    X126      R62       1
    X126      R94       1
    X126      R110      1
    X126      R118      1
    X126      R122      1
    X126      R124      1
    X126      R126      1
    X126      R127      1
    X127      OBJ       1
    X127      R63       1
    X127      R95       1
    X127      R111      1
    X127      R119      1
    X127      R123      1
    X127      R125      1
    X127      R126      1
    X127      R127      1
RHS
    RHS1      R0        1
    RHS1      R1        1
    RHS1      R2        1
    RHS1      R3        1
    RHS1      R4        1
    RHS1      R5        1
    RHS1      R6        1
    RHS1      R7        1
    RHS1      R8        1
    RHS1      R9        1
    RHS1      R10       1
    RHS1      R11       1
    RHS1      R12       1
    RHS1      R13       1
    RHS1      R14       1
    RHS1      R15       1
    RHS1      R16       1
    RHS1      R17       1
    RHS1      R18       1
    RHS1      R19       1
    RHS1      R20       1
    RHS1      R21       1
    RHS1      R22       1
    RHS1      R23       1
    RHS1      R24       1
    RHS1      R25       1
    RHS1      R26       1
    RHS1      R27       1
    RHS1      R28       1
    RHS1      R29       1
    RHS1      R30       1
    RHS1      R31       1
    RHS1      R32       1
    RHS1      R33       1
    RHS1      R34       1
    RHS1      R35       1
    RHS1      R36       1
    RHS1      R37       1
    RHS1      R38       1
    RHS1      R39       1
    RHS1      R40       1
    RHS1      R41       1
    RHS1      R42       1
    RHS1      R43       1
    RHS1      R44       1
    RHS1      R45       1
    RHS1      R46       1
    RHS1      R47       1
    RHS1      R48       1
    RHS1      R49       1
    RHS1      R50       1
    RHS1      R51       1
    RHS1      R52       1
    RHS1      R53       1
    RHS1      R54       1
    RHS1      R55       1
    RHS1      R56       1
    RHS1      R57       1
    RHS1      R58       1
    RHS1      R59       1
    RHS1      R60       1
    RHS1      R61       1
    RHS1      R62       1
    RHS1      R63       1
    RHS1      R64       1
    RHS1      R65       1
    RHS1      R66       1
    RHS1      R67       1
    RHS1      R68       1
    RHS1      R69       1
    RHS1      R70       1
    RHS1      R71       1
    RHS1      R72       1
    RHS1      R73       1
    RHS1      R74       1
    RHS1      R75       1
    RHS1      R76       1
    RHS1      R77       1
    RHS1      R78       1
    RHS1      R79       1
    RHS1      R80       1
    RHS1      R81       1
    RHS1      R82       1
    RHS1      R83       1
    RHS1      R84       1
    RHS1      R85       1
    RHS1      R86       1
    RHS1      R87       1
    RHS1      R88       1
    RHS1      R89       1
    RHS1      R90       1
    RHS1      R91       1
    RHS1      R92       1
    RHS1      R93       1
    RHS1      R94       1
    RHS1      R95       1
    RHS1      R96       1
    RHS1      R97       1
    RHS1      R98       1
    RHS1      R99       1
    RHS1      R100      1
    RHS1      R101      1
    RHS1      R102      1
    RHS1      R103      1
    RHS1      R104      1
    RHS1      R105      1
    RHS1      R106      1
    RHS1      R107      1
    RHS1      R108      1
    RHS1      R109      1
    RHS1      R110      1
    RHS1      R111      1
    RHS1      R112      1
    RHS1      R113      1
    RHS1      R114      1
    RHS1      R115      1
    RHS1      R116      1
    RHS1      R117      1
    RHS1      R118      1
    RHS1      R119      1
    RHS1      R120      1
    RHS1      R121      1
    RHS1      R122      1
    RHS1      R123      1
    RHS1      R124      1
    RHS1      R125      1
    RHS1      R126      1
    RHS1      R127      1
BOUNDS
 UP BND1      X0        1
 UP BND1      X1        1
 UP BND1      X2        1
 UP BND1      X3        1
 UP BND1      X4        1
 UP BND1      X5        1
 UP BND1      X6        1
 UP BND1      X7        1
 UP BND1      X8        1
 UP BND1      X9        1
 UP BND1      X10       1
 UP BND1      X11       1
 UP BND1      X12       1
 UP BND1      X13       1
 UP BND1      X14       1
 UP BND1      X15       1
 UP BND1      X16       1
 UP BND1      X17       1
 UP BND1      X18       1
 UP BND1      X19       1
 UP BND1      X20       1
 UP BND1      X21       1
 UP BND1      X22       1
 UP BND1      X23       1
 UP BND1      X24       1
 UP BND1      X25       1
 UP BND1      X26       1
 UP BND1      X27       1
 UP BND1      X28       1
 UP BND1      X29       1
 UP BND1      X30       1
 UP BND1      X31       1
 UP BND1      X32       1
 UP BND1      X33       1
 UP BND1      X34       1
 UP BND1      X35       1
 UP BND1      X36       1
 UP BND1      X37       1
 UP BND1      X38       1
 UP BND1      X39       1
 UP BND1      X40       1
 UP BND1      X41       1
 UP BND1      X42       1
 UP BND1      X43       1
 UP BND1      X44       1
 UP BND1      X45       1
 UP BND1      X46       1
 UP BND1      X47       1
 UP BND1      X48       1
 UP BND1      X49       1
 UP BND1      X50       1
 UP BND1      X51       1
 UP BND1      X52       1
 UP BND1      X53       1
 UP BND1      X54       1
 UP BND1      X55       1
 UP BND1      X56       1
 UP BND1      X57       1
 UP BND1      X58       1
 UP BND1      X59       1
 UP BND1      X60       1
 UP BND1      X61       1
 UP BND1      X62       1
 UP BND1      X63       1
 UP BND1      X64       1
 UP BND1      X65       1
 UP BND1      X66       1
 UP BND1      X67       1
 UP BND1      X68       1
 UP BND1      X69       1
 UP BND1      X70       1
 UP BND1      X71       1
 UP BND1      X72       1
 UP BND1      X73       1
 UP BND1      X74       1
 UP BND1      X75       1
 UP BND1      X76       1
 UP BND1      X77       1
 UP BND1      X78       1
 UP BND1      X79       1
 UP BND1      X80       1
 UP BND1      X81       1
 UP BND1      X82       1
 UP BND1      X83       1
 UP BND1      X84       1
 UP BND1      X85       1
 UP BND1      X86       1
 UP BND1      X87       1
 UP BND1      X88       1
 UP BND1      X89       1
 UP BND1      X90       1
 UP BND1      X91       1
 UP BND1      X92       1
 UP BND1      X93       1
 UP BND1      X94       1
 UP BND1      X95       1
 UP BND1      X96       1
 UP BND1      X97       1
 UP BND1      X98       1
 UP BND1      X99       1
 UP BND1      X100      1
 UP BND1      X101      1
 UP BND1      X102      1
 UP BND1      X103      1
 UP BND1      X104      1
 UP BND1      X105      1
 UP BND1      X106      1
 UP BND1      X107      1
 UP BND1      X108      1
 UP BND1      X109      1
 UP BND1      X110      1
 UP BND1      X111      1
 UP BND1      X112      1
 UP BND1      X113      1
 UP BND1      X114      1
 UP BND1      X115      1
 UP BND1      X116      1
 UP BND1      X117      1
 UP BND1      X118      1
 UP BND1      X119      1
 UP BND1      X120      1
 UP BND1      X121      1
 UP BND1      X122      1
 UP BND1      X123      1
 UP BND1      X124      1
 UP BND1      X125      1
 UP BND1      X126      1
 UP BND1      X127      1
ENDATA
